&projwfc 
prefix   = "opt"
outdir   = "./output"
ngauss   = 0
degauss  = 0.01
DeltaE   = 0.05
lsym     = .true.
filpdos  = "pdos"
/
