&CONTROL
   calculation      = 'relax'
   nstep            = 100
   tprnfor          = .true.
   outdir           = './output'
   prefix           = 'opt'
   pseudo_dir       = '../../pseudo'
/
&SYSTEM
   ibrav            = 0
   ecutwfc          = 40
   ecutrho          = 320.0
   nosym            = .true.
   occupations      = 'smearing'
   degauss          = 0.01
   smearing         = 'm-p'
   nspin            = 1
   ntyp             = 3
   nat              = 29
   input_dft        = 'rpbe'
/
&ELECTRONS
   electron_maxstep = 200
   conv_thr         = 1e-06
   mixing_beta      = 0.1
/
&IONS
/
&CELL
/

ATOMIC_SPECIES
Cu 63.546 cu_pbe_v1.2.uspp.F.UPF
O 15.999 o_pbe_v1.2.uspp.F.UPF
C 12.011 c_pbe_v1.2.uspp.F.UPF

K_POINTS automatic
2 2 1  1 1 0

CELL_PARAMETERS angstrom
7.73093199421293 0.00000000000000 0.00000000000000
3.86546599710646 6.69518350191829 0.00000000000000
0.00000000000000 0.00000000000000 24.20818636043975

ATOMIC_POSITIONS (angstrom)
Cu            0.0000000000        0.0000000000       10.0000000000    0   0   0
Cu            2.5713444116        1.4845650179       11.9984314488
Cu            1.2815937318        0.7399271071       13.9995523319
Cu            1.2884886657        2.2317278340       10.0000000000    0   0   0
Cu            3.8760217698        3.7113811283       12.0115697679
Cu            2.5526292567        2.9654042895       13.9944090846
Cu            2.5769773314        4.4634556679       10.0000000000    0   0   0
Cu            5.1499575880        5.9519505803       11.9949886241
Cu            3.8543566046        5.2251602246       13.9834909861
Cu            2.5769773314        0.0000000000       10.0000000000    0   0   0
Cu            5.1521601182        1.5010424524       12.0115716458
Cu            3.8444274188        0.7279403570       13.9944118507
Cu            3.8654659971        2.2317278340       10.0000000000    0   0   0
Cu            6.4215235939        3.7074699879       12.0116822795
Cu            5.1544251090        2.9759111473       14.0513645720
Cu            5.1539546628        4.4634556679       10.0000000000    0   0   0
Cu            7.7331994410        5.9512761865       11.9922701131
Cu            6.4420291257        5.2219107011       13.9909845072
Cu            5.1539546628        0.0000000000       10.0000000000    0   0   0
Cu            7.7295206623        1.4840187259       11.9949902269
Cu            6.4523007342        0.7253916270       13.9834927720
Cu            6.4424433285        2.2317278340       10.0000000000    0   0   0
Cu            9.0205563084        3.7215124179       11.9922708026
Cu            7.7433202776        2.9680061557       13.9909849492
Cu            7.7309319942        4.4634556679       10.0000000000    0   0   0
Cu           10.3008735077        5.9472123295       11.9891804049
Cu            9.0125485452        5.2033986083       13.9888153690
O             5.1521676011        2.9746029354       17.0610942377
C             5.1584761588        2.9782478226       15.9080421660

