&CONTROL
   calculation      = 'relax'
   nstep            = 100
   tprnfor          = .true.
   outdir           = './output'
   prefix           = 'opt'
   pseudo_dir       = '/project/lt200240-ccoxrr/mano/02_for_rism/pseudo'
/
&SYSTEM
   ibrav            = 0
   ecutwfc          = 40
   ecutrho          = 320.0
   nosym            = .true.
   occupations      = 'smearing'
   degauss          = 0.01
   smearing         = 'm-p'
   nspin            = 1
   ntyp             = 3
   nat              = 29
   vdw_corr         = 'dft-d3'
   dftd3_version    = 3
/
&ELECTRONS
   electron_maxstep = 200
   conv_thr         = 1e-06
   mixing_beta      = 0.1
/
&IONS
/
&CELL
/

ATOMIC_SPECIES
Cu 63.546 cu_pbe_v1.2.uspp.F.UPF
O 15.999 o_pbe_v1.2.uspp.F.UPF
C 12.011 c_pbe_v1.2.uspp.F.UPF

K_POINTS automatic
2 2 1  1 1 0

CELL_PARAMETERS angstrom
7.73093199421293 0.00000000000000 0.00000000000000
3.86546599710646 6.69518350191829 0.00000000000000
0.00000000000000 0.00000000000000 24.20818636043975

ATOMIC_POSITIONS (angstrom)
Cu            0.0000000000        0.0000000000       10.0000000000    0   0   0
Cu            2.5741204895        1.4777609332       12.0086739642
Cu            1.2864605401        0.7352544792       14.0182008922
Cu            1.2884886657        2.2317278340       10.0000000000    0   0   0
Cu            3.8758526277        3.7192643753       12.0186601759
Cu            2.5700212612        2.9659353454       14.0169950207
Cu            2.5769773314        4.4634556679       10.0000000000    0   0   0
Cu            5.1509801775        5.9460639031       12.0173828168
Cu            3.8438704809        5.2171861760       14.0376188286
Cu            2.5769773314        0.0000000000       10.0000000000    0   0   0
Cu            5.1552579423        1.4954860273       12.0192318980
Cu            3.8593129866        0.7380917639       14.0238232090
Cu            3.8654659971        2.2317278340       10.0000000000    0   0   0
Cu            6.4446922738        3.7189425733       12.0024151764
Cu            5.1606557317        2.9526219566       14.0475073050
Cu            5.1539546628        4.4634556679       10.0000000000    0   0   0
Cu            7.7137343324        5.9364112936       12.0199843782
Cu            6.4484248680        5.2163094187       14.0598139631
Cu            5.1539546628        0.0000000000       10.0000000000    0   0   0
Cu            7.7293035426        1.4882210485       12.0130268622
Cu            6.4458357920        0.7381565960       14.0192368253
Cu            6.4424433285        2.2317278340       10.0000000000    0   0   0
Cu            9.0211548923        3.7116932523       12.0082089605
Cu            7.7558287302        2.9575079392       14.0232103569
Cu            7.7309319942        4.4634556679       10.0000000000    0   0   0
Cu           10.3104720688        5.9501525196       12.0107622141
Cu            9.0203922808        5.1994057409       14.0172569294
O             5.7463299654        4.1010615668       16.7639130341
C             5.7382563302        4.0885901930       15.5918647787



