&CONTROL
   calculation      = 'relax'
   nstep            = 100
   tprnfor          = .true.
   outdir           = './output'
   prefix           = 'opt'
   pseudo_dir       = '../../pseudo'
/
&SYSTEM
   ibrav            = 0
   ecutwfc          = 40
   ecutrho          = 320.0
   nosym            = .true.
   occupations      = 'smearing'
   degauss          = 0.01
   smearing         = 'm-p'
   nspin            = 1
   ntyp             = 1
   nat              = 27
   vdw_corr         = 'dft-d3'
   dftd3_version    = 3
/
&ELECTRONS
   electron_maxstep = 200
   conv_thr         = 1e-06
   mixing_beta      = 0.1
/
&IONS
/
&CELL
/

ATOMIC_SPECIES
Cu 63.546 cu_pbe_v1.2.uspp.F.UPF

K_POINTS automatic
2 2 1  1 1 0

CELL_PARAMETERS angstrom
7.73093199421293 0.00000000000000 0.00000000000000
3.86546599710646 6.69518350191829 0.00000000000000
0.00000000000000 0.00000000000000 24.20818636043975

ATOMIC_POSITIONS (angstrom)
Cu            0.0000000000        0.0000000000       10.0000000000    0   0   0
Cu            2.5760610421        1.4873745088       12.0022331287
Cu            1.2854927794        0.7422122709       14.0042722091
Cu            1.2884886657        2.2317278340       10.0000000000    0   0   0
Cu            3.8643758363        3.7188151887       12.0021986083
Cu            2.5739634747        2.9737252608       14.0043323564
Cu            2.5769773314        4.4634556679       10.0000000000    0   0   0
Cu            5.1529030260        5.9506517827       12.0023478435
Cu            3.8622873054        5.2051913776       14.0042075083
Cu            2.5769773314        0.0000000000       10.0000000000    0   0   0
Cu            5.1527673300        1.4873342003       12.0022095283
Cu            3.8621878213        0.7423263592       14.0042663250
Cu            3.8654659971        2.2317278340       10.0000000000    0   0   0
Cu            6.4412764403        3.7188676532       12.0023554790
Cu            5.1504918259        2.9737906887       14.0043281339
Cu            5.1539546628        4.4634556679       10.0000000000    0   0   0
Cu            7.7299054945        5.9507607768       12.0023628567
Cu            6.4391207437        5.2054294652       14.0043283160
Cu            5.1539546628        0.0000000000       10.0000000000    0   0   0
Cu            7.7299519859        1.4872562294       12.0022866025
Cu            6.4390753013        0.7421788001       14.0040739668
Cu            6.4424433285        2.2317278340       10.0000000000    0   0   0
Cu            9.0185770658        3.7189034315       12.0022833165
Cu            7.7277672911        2.9738461017       14.0042428904
Cu            7.7309319942        4.4634556679       10.0000000000    0   0   0
Cu           10.3068645492        5.9505637162       12.0022596914
Cu            9.0162175451        5.2053834680       14.0042131961


