&CONTROL
   calculation      = 'relax'
   nstep            = 100
   tprnfor          = .true.
   outdir           = './output'
   prefix           = 'opt'
   pseudo_dir       = '/project/lt200240-ccoxrr/mano/02_for_rism/pseudo'
/
&SYSTEM
   ibrav            = 0
   ecutwfc          = 40
   ecutrho          = 320.0
   nosym            = .true.
   occupations      = 'smearing'
   degauss          = 0.01
   smearing         = 'm-p'
   nspin            = 1
   ntyp             = 3
   nat              = 29
   vdw_corr         = 'dft-d3'
   dftd3_version    = 3
/
&ELECTRONS
   electron_maxstep = 200
   conv_thr         = 1e-06
   mixing_beta      = 0.1
/
&IONS
/
&CELL
/

ATOMIC_SPECIES
Cu 63.546 cu_pbe_v1.2.uspp.F.UPF
O 15.999 o_pbe_v1.2.uspp.F.UPF
C 12.011 c_pbe_v1.2.uspp.F.UPF

K_POINTS automatic
2 2 1  1 1 0

CELL_PARAMETERS angstrom
7.73093199421293 0.00000000000000 0.00000000000000
3.86546599710646 6.69518350191829 0.00000000000000
0.00000000000000 0.00000000000000 24.20818636043975

ATOMIC_POSITIONS (angstrom)
Cu            0.0000000000        0.0000000000       10.0000000000    0   0   0
Cu            2.5714222849        1.4810582186       12.0007698697
Cu            1.2866675314        0.7499984938       14.0125037076
Cu            1.2884886657        2.2317278340       10.0000000000    0   0   0
Cu            3.8687574006        3.7176260565       12.0142760947
Cu            2.5594764073        2.9608818766       14.0044514844
Cu            2.5769773314        4.4634556679       10.0000000000    0   0   0
Cu            5.1509671746        5.9442706881       12.0127473164
Cu            3.8553293999        5.2142179954       14.0616479136
Cu            2.5769773314        0.0000000000       10.0000000000    0   0   0
Cu            5.1566098415        1.4940742861       12.0163467460
Cu            3.8586465557        0.7413807611       14.0136933947
Cu            3.8654659971        2.2317278340       10.0000000000    0   0   0
Cu            6.4376844989        3.7170901535       12.0105807594
Cu            5.1607350135        2.9445648685       14.0511441486
Cu            5.1539546628        4.4634556679       10.0000000000    0   0   0
Cu            7.7062158968        5.9341333386       12.0181807789
Cu            6.4551099445        5.2102124622       14.0667792573
Cu            5.1539546628        0.0000000000       10.0000000000    0   0   0
Cu            7.7293702790        1.4848486727       12.0064122454
Cu            6.4498396421        0.7407371581       14.0165809438
Cu            6.4424433285        2.2317278340       10.0000000000    0   0   0
Cu            9.0130034605        3.7143676837       12.0005046340
Cu            7.7399547957        2.9643179565       14.0111707383
Cu            7.7309319942        4.4634556679       10.0000000000    0   0   0
Cu           10.3221831423        5.9421961409       12.0185301847
Cu            9.0200424671        5.1958958193       14.0134407368
O             5.1445981292        4.4052412977       16.6796461033
C             5.1973434327        4.4493580643       15.5027202323

