&CONTROL
   calculation      = 'relax'
   tprnfor          = .true.
   outdir           = './output'
   prefix           = 'opt'
   pseudo_dir       = '../../pseudo'
/
&SYSTEM
   ibrav            = 0
   tot_charge       = 0.0
   ecutwfc          = 40
   ecutrho          = 320.0
   nosym            = .true.
   nspin            = 1
   ntyp             = 2
   nat              = 2
   vdw_corr         = 'dft-d3'
   dftd3_version    = 3
/
&ELECTRONS
   electron_maxstep = 200
   conv_thr         = 1e-06
   mixing_beta      = 0.7
/
&IONS
/
&CELL
/

ATOMIC_SPECIES
O 15.999 o_pbe_v1.2.uspp.F.UPF
C 12.011 c_pbe_v1.2.uspp.F.UPF

K_POINTS gamma

CELL_PARAMETERS angstrom
20.00000000000000 0.00000000000000 0.00000000000000
0.00000000000000 20.00000000000000 0.00000000000000
0.00000000000000 0.00000000000000 20.00000000000000

ATOMIC_POSITIONS (angstrom)
O             0.0000000029        0.0000000002        0.4882920151
C            -0.0000000029       -0.0000000002       -0.6526260151



