&CONTROL
   calculation      = 'relax'
   nstep            = 100
   tprnfor          = .true.
   outdir           = './output'
   prefix           = 'opt'
   pseudo_dir       = '../../pseudo'
/
&SYSTEM
   ibrav            = 0
   ecutwfc          = 40
   ecutrho          = 320.0
   nosym            = .true.
   occupations      = 'smearing'
   degauss          = 0.01
   smearing         = 'm-p'
   nspin            = 1
   ntyp             = 3
   nat              = 29
   vdw_corr         = 'dft-d3'
   dftd3_version    = 3
/
&ELECTRONS
   electron_maxstep = 200
   conv_thr         = 1e-06
   mixing_beta      = 0.1
/
&IONS
/
&CELL
/

ATOMIC_SPECIES
Cu 63.546 cu_pbe_v1.2.uspp.F.UPF
O 15.999 o_pbe_v1.2.uspp.F.UPF
C 12.011 c_pbe_v1.2.uspp.F.UPF

K_POINTS automatic
2 2 1  1 1 0

CELL_PARAMETERS angstrom
7.73093199421293 0.00000000000000 0.00000000000000
3.86546599710646 6.69518350191829 0.00000000000000
0.00000000000000 0.00000000000000 24.20818636043975

ATOMIC_POSITIONS (angstrom)
Cu            0.0000000000        0.0000000000       10.0000000000    0   0   0
Cu            2.5717809029        1.4848189826       12.0120515199
Cu            1.2834908790        0.7410255635       14.0271395082
Cu            1.2884886657        2.2317278340       10.0000000000    0   0   0
Cu            3.8775246704        3.7114938140       12.0255736297
Cu            2.5559793556        2.9676671370       14.0223387079
Cu            2.5769773314        4.4634556679       10.0000000000    0   0   0
Cu            5.1509756804        5.9522313039       12.0089786835
Cu            3.8557245802        5.2255465959       14.0113478482
Cu            2.5769773314        0.0000000000       10.0000000000    0   0   0
Cu            5.1530083545        1.5022893006       12.0255736796
Cu            3.8480635194        0.7297125781       14.0223382629
Cu            3.8654659971        2.2317278340       10.0000000000    0   0   0
Cu            6.4228056410        3.7082105965       12.0271742941
Cu            5.1582703950        2.9781300651       14.0870911536
Cu            5.1539546628        4.4634556679       10.0000000000    0   0   0
Cu            7.7337827376        5.9516370099       12.0065569541
Cu            6.4448417272        5.2236165630       14.0198503603
Cu            5.1539546628        0.0000000000       10.0000000000    0   0   0
Cu            7.7302697261        1.4847607566       12.0089797627
Cu            6.4533175247        0.7263849168       14.0113498806
Cu            6.4424433285        2.2317278340       10.0000000000    0   0   0
Cu            9.0211599091        3.7218360327       12.0065573625
Cu            7.7462047606        2.9695909850       14.0198521040
Cu            7.7309319942        4.4634556679       10.0000000000    0   0   0
Cu           10.3017998552        5.9477475098       12.0035208509
Cu            9.0149169818        5.2047659623       14.0176055685
O             5.1514997732        2.9742161416       17.1045988175
C             5.1590102611        2.9785543744       15.9510460941


