&CONTROL
   calculation      = 'scf'
   tprnfor          = .true.
   outdir           = './output'
   prefix           = 'opt'
   pseudo_dir       = '../../../pseudo'
/
&SYSTEM
   ibrav            = 0
   ecutwfc          = 40
   ecutrho          = 320.0
   nosym            = .true.
   occupations      = 'smearing'
   degauss          = 0.01
   smearing         = 'm-p'
   nspin            = 1
   ntyp             = 3
   nat              = 14
   assume_isolated  = 'esm'
   esm_bc           = 'bc2'
   esm_efield       = 0.01
/
&ELECTRONS
   electron_maxstep = 200
   conv_thr         = 1e-06
   mixing_beta      = 0.1
/
&IONS
/
&CELL
/

ATOMIC_SPECIES
Cu 63.546 cu_pbe_v1.2.uspp.F.UPF
O 15.999 o_pbe_v1.2.uspp.F.UPF
C 12.011 c_pbe_v1.2.uspp.F.UPF

K_POINTS automatic
2 2 1  1 1 0

CELL_PARAMETERS angstrom
5.10531096016687 0.00000000000000 0.00000000000000
2.55265548008344 4.42132898572364 0.00000000000000
0.00000000000000 0.00000000000000 30.0000000000000

ATOMIC_POSITIONS (angstrom)
Cu               0.6381638700        0.3684440821       -2.0000000000    0   0   0
Cu               3.2182096562        1.8483466667        0.0478707369
Cu               1.9955115529        1.1360157300        2.0789022861
Cu               1.9144916101        2.5791085750       -2.0000000000    0   0   0
Cu               4.4980783031        4.0484755044        0.0619625802
Cu               3.2707141481        3.3696333805        2.1917112619
Cu               3.1908193501        0.3684440821       -2.0000000000    0   0   0
Cu               5.7635727204        1.8570865499        0.0633645118
Cu               4.5666267948        1.1274184714        2.1980384526
Cu               4.4671470901        2.5791085750       -2.0000000000    0   0   0
Cu               7.0488744325        4.0612323542        0.1260174534
Cu               5.8486019780        3.3617502021        2.2051474495
O                4.5028107593        2.5946618282        4.7340239143
C                4.4995823328        2.5878773193        3.5533731102







