&CONTROL
   calculation      = 'scf'
   tprnfor          = .true.
   outdir           = './output'
   prefix           = 'opt'
   pseudo_dir       = '../../../pseudo'
/
&SYSTEM
   ibrav            = 0
   ecutwfc          = 40
   ecutrho          = 320.0
   nosym            = .true.
   occupations      = 'smearing'
   degauss          = 0.01
   smearing         = 'm-p'
   nspin            = 1
   ntyp             = 2
   nat              = 28
/
&ELECTRONS
   electron_maxstep = 200
   conv_thr         = 1e-06
   mixing_beta      = 0.1
/
&IONS
/
&CELL
/

ATOMIC_SPECIES
Cu 63.546 cu_pbe_v1.2.uspp.F.UPF
K 39.0983 k_pbe_v1.4.uspp.F.UPF

K_POINTS automatic
2 2 1  1 1 0

CELL_PARAMETERS angstrom
7.73093199421293 0.00000000000000 0.00000000000000
3.86546599710646 6.69518350191829 0.00000000000000
0.00000000000000 0.00000000000000 30.00000000000000

ATOMIC_POSITIONS (angstrom)
Cu            0.0000000000        0.0000000000       -2.0505876237    0   0   0
Cu            2.5787138580        1.4898891382       -0.0019875334    0   0   0
Cu            1.2913145726        0.7455830540        2.0954191266
Cu            1.2884886657        2.2317278340       -2.0505876237    0   0   0
Cu            3.8673294084        3.7208957082       -0.0026566529    0   0   0
Cu            2.5795299193        2.9800368953        2.0953773618
Cu            2.5769773314        4.4634556679       -2.0505876237    0   0   0
Cu            5.1554587243        5.9520819537       -0.0009196075    0   0   0
Cu            3.8741604549        5.2071557837        2.0968707023
Cu            2.5769773314        0.0000000000       -2.0505876237    0   0   0
Cu            5.1557829213        1.4893158990       -0.0016222768    0   0   0
Cu            3.8702251291        0.7440743161        2.0956527666
Cu            3.8654659971        2.2317278340       -2.0505876237    0   0   0
Cu            6.4438264951        3.7203708825       -0.0015131092    0   0   0
Cu            5.1452284111        2.9707739621        2.0491646980
Cu            5.1539546628        4.4634556679       -2.0505876237    0   0   0
Cu            7.7328056931        5.9526046624       -0.0010297399    0   0   0
Cu            6.4475765993        5.2221320938        2.0513896092
Cu            5.1539546628        0.0000000000       -2.0505876237    0   0   0
Cu            7.7330522159        1.4880202170       -0.0011796421    0   0   0
Cu            6.4465338104        0.7513930953        2.0965786614
Cu            6.4424433285        2.2317278340       -2.0505876237    0   0   0
Cu            9.0218090605        3.7208981390       -0.0020469797    0   0   0
Cu            7.7462968937        2.9727755157        2.0507568544
Cu            7.7309319942        4.4634556679       -2.0505876237    0   0   0
Cu           10.3104985619        5.9517392845       -0.0021878455    0   0   0
Cu            9.0200622594        5.2077413571        2.0964719592
K             6.4407645286        3.7185897537        4.8146427331











