&CONTROL
   calculation      = 'relax'
   tprnfor          = .true.
   outdir           = './output'
   prefix           = 'opt'
   pseudo_dir       = '../../pseudo'
/
&SYSTEM
   ibrav            = 0
   ecutwfc          = 40
   ecutrho          = 320.0
   nosym            = .true.
   occupations      = 'smearing'
   degauss          = 0.01
   smearing         = 'm-p'
   nspin            = 1
   ntyp             = 1
   nat              = 27
/
&ELECTRONS
   electron_maxstep = 200
   conv_thr         = 1e-06
   mixing_beta      = 0.1
/
&IONS
/
&CELL
/

ATOMIC_SPECIES
Cu 63.546 cu_pbe_v1.2.uspp.F.UPF

K_POINTS automatic
2 2 1  1 1 0

CELL_PARAMETERS angstrom
7.73093199421293 0.00000000000000 0.00000000000000
3.86546599710646 6.69518350191829 0.00000000000000
0.00000000000000 0.00000000000000 30.00000000000000

ATOMIC_POSITIONS (angstrom)
Cu            0.0000000000        0.0000000000       -2.0505876237    0   0   0
Cu            2.5787138580        1.4898891382       -0.0019875334    0   0   0
Cu            1.2936851099        0.7469396053        2.0495879711
Cu            1.2884886657        2.2317278340       -2.0505876237    0   0   0
Cu            3.8673294084        3.7208957082       -0.0026566529    0   0   0
Cu            2.5821539038        2.9787704315        2.0487108441
Cu            2.5769773314        4.4634556679       -2.0505876237    0   0   0
Cu            5.1554587243        5.9520819537       -0.0009196075    0   0   0
Cu            3.8688251746        5.2112594291        2.0487894495
Cu            2.5769773314       -0.0000000000       -2.0505876237    0   0   0
Cu            5.1557829213        1.4893158990       -0.0016222768    0   0   0
Cu            3.8704845867        0.7469967298        2.0489585711
Cu            3.8654659971        2.2317278340       -2.0505876237    0   0   0
Cu            6.4438264951        3.7203708825       -0.0015131092    0   0   0
Cu            5.1599024873        2.9792471258        2.0518324357
Cu            5.1539546628        4.4634556679       -2.0505876237    0   0   0
Cu            7.7328056931        5.9526046624       -0.0010297399    0   0   0
Cu            6.4471038212        5.2086358008        2.0524112126
Cu            5.1539546628       -0.0000000000       -2.0505876237    0   0   0
Cu            7.7330522159        1.4880202170       -0.0011796421    0   0   0
Cu            6.4475237506        0.7447188076        2.0484775082
Cu            6.4424433285        2.2317278340       -2.0505876237    0   0   0
Cu            9.0218090605        3.7208981390       -0.0020469797    0   0   0
Cu            7.7343652220        2.9791171584        2.0517239607
Cu            7.7309319942        4.4634556679       -2.0505876237    0   0   0
Cu           10.3104985619        5.9517392845       -0.0021878455    0   0   0
Cu            9.0262179299        5.2112783604        2.0483253809












