&CONTROL
   calculation      = 'scf'
   nstep            = 200
   tprnfor          = .true.
   outdir           = './output'
   prefix           = 'opt'
   etot_conv_thr    = 1e-05
   forc_conv_thr    = 0.0001
   pseudo_dir       = '../../pseudo'
   trism            = .false.
   lfcp             = .false.
/
&SYSTEM
   ibrav            = 0
   ecutwfc          = 40
   ecutrho          = 320.0
   nosym            = .true.
   occupations      = 'smearing'
   degauss          = 0.01
   smearing         = 'gauss'
   nspin            = 1
   ntyp             = 1
   nat              = 2
/
&ELECTRONS
   electron_maxstep = 200
   conv_thr         = 1e-08
   mixing_beta      = 0.1
/
&IONS
   upscale          = 1
/
&CELL
/
&FCP
/
&RISM
/

ATOMIC_SPECIES
H 1.008 h_pbe_v1.4.uspp.F.UPF

K_POINTS gamma

CELL_PARAMETERS angstrom
19.99999964301650 0.00000000000000 0.00000000000000
0.00000000000000 19.99999964301650 0.00000000000000
0.00000000000000 0.00000000000000 19.99999964301650

ATOMIC_POSITIONS angstrom
H 0.0000000000 0.0000000000 -0.3808199932 
H 0.0000000000 0.0000000000 0.3908199932 

