&CONTROL
   calculation      = 'scf'
   nstep            = 200
   tprnfor          = .true.
   outdir           = './output'
   prefix           = 'opt'
   etot_conv_thr    = 1e-05
   forc_conv_thr    = 0.0001
   pseudo_dir       = '/project/lt200240-ccoxrr/mano/02_for_rism/pseudo'
   trism            = .false.
   lfcp             = .false.
/
&SYSTEM
   ibrav            = 0
   ecutwfc          = 40
   ecutrho          = 320.0
   nosym            = .true.
   occupations      = 'smearing'
   degauss          = 0.01
   smearing         = 'gauss'
   nspin            = 1
   input_dft        = 'vdw-df2-b86r'
   ntyp             = 3
   nat              = 29
/
&ELECTRONS
   electron_maxstep = 200
   conv_thr         = 1e-06
   mixing_beta      = 0.1
   diagonalization  = 'david'
/
&IONS
   upscale          = 1
/
&CELL
/
&FCP
/
&RISM
/

ATOMIC_SPECIES
Cu 63.546 cu_pbe_v1.2.uspp.F.UPF
O 15.999 o_pbe_v1.2.uspp.F.UPF
C 12.011 c_pbe_v1.2.uspp.F.UPF

K_POINTS automatic
2 2 1  1 1 0

CELL_PARAMETERS angstrom
7.73093187379656 0.00000000000000 0.00000000000000
3.86546593689828 6.69518027600467 0.00000000000000
0.00000000000000 0.00000000000000 24.20818394462599

ATOMIC_POSITIONS angstrom
Cu 0.0000000000 0.0000000000 -2.0666591590  0 0 0
Cu 2.5726732164 1.4799482207 -0.0182244880  0 0 0
Cu 1.2946411627 0.7559899866 2.0413879509 
Cu 1.2884886657 2.2317278340 -2.0666591590  0 0 0
Cu 3.8684797635 3.7184617045 -0.0045041810  0 0 0
Cu 2.5673916003 2.9637417725 2.0348803797 
Cu 2.5769773314 4.4634556679 -2.0666591590  0 0 0
Cu 5.1506611740 5.9401754991 -0.0078690239  0 0 0
Cu 3.8661295790 5.2162453046 2.1246885420 
Cu 2.5769773314 0.0000000000 -2.0666591590  0 0 0
Cu 5.1527764103 1.4946415224 0.0074974619 
Cu 3.8692987989 0.7460734556 2.0536015656 
Cu 3.8654659971 2.2317278340 -2.0666591590  0 0 0
Cu 6.4342298346 3.7178133306 -0.0096789597  0 0 0
Cu 5.1685092530 2.9567239050 2.1193090130 
Cu 5.1539546628 4.4634556679 -2.0666591590  0 0 0
Cu 7.7104838493 5.9360627214 0.0043722135 
Cu 6.4656138724 5.2144322346 2.1295397344 
Cu 5.1539546628 0.0000000000 -2.0666591590  0 0 0
Cu 7.7261402489 1.4821113679 -0.0100393197  0 0 0
Cu 6.4544188478 0.7426199617 2.0493758100 
Cu 6.4424433285 2.2317278340 -2.0666591590  0 0 0
Cu 9.0132126217 3.7149037591 -0.0181247785  0 0 0
Cu 7.7500286348 2.9659669086 2.0409219772 
Cu 7.7309319942 4.4634556679 -2.0666591590  0 0 0
Cu 10.3171848737 5.9414788512 0.0088295759 
Cu 9.0301494429 5.2001274880 2.0539689576 
O 5.1558533645 4.4410263033 4.6747053696 
C 5.1821657236 4.4609734382 3.4927065144 

