&bands
prefix         ='opt' 
outdir         ='./output'
spin_component = 1
filband        ='upspin.bands'
/
