&CONTROL
   calculation      = 'bands'
   outdir           = './output'
   prefix           = 'opt'
   pseudo_dir       = '../../pseudo/'
   verbosity        = 'high'
/
&SYSTEM
   ibrav            = 0
   ntyp             = 1
   nat              = 1
   ecutwfc          = 40
   ecutrho          = 320.0
   occupations      = 'smearing'
   degauss          = 0.01
   smearing         = 'm-p'
   nspin            = 2
   starting_magnetization(1) = 1
/
&ELECTRONS
   conv_thr         = 1e-08
   mixing_beta      = 0.6
/
&IONS
/
&CELL
/

ATOMIC_SPECIES
Cu 63.546 cu_pbe_v1.2.uspp.F.UPF

CELL_PARAMETERS (angstrom)
   0.000000000   1.822198146   1.822198146
   1.822198146   0.000000000   1.822198146
   1.822198146   1.822198146   0.000000000

ATOMIC_POSITIONS (angstrom)
Cu               0.0000000000        0.0000000000        0.0000000000

K_POINTS crystal_b
100
 0.000000  0.000000  0.000000  1.000
 0.021739  0.000000  0.021739  1.000
 0.043478  0.000000  0.043478  1.000
 0.065217  0.000000  0.065217  1.000
 0.086957  0.000000  0.086957  1.000
 0.108696  0.000000  0.108696  1.000
 0.130435  0.000000  0.130435  1.000
 0.152174  0.000000  0.152174  1.000
 0.173913  0.000000  0.173913  1.000
 0.195652  0.000000  0.195652  1.000
 0.217391  0.000000  0.217391  1.000
 0.239130  0.000000  0.239130  1.000
 0.260870  0.000000  0.260870  1.000
 0.282609  0.000000  0.282609  1.000
 0.304348  0.000000  0.304348  1.000
 0.326087  0.000000  0.326087  1.000
 0.347826  0.000000  0.347826  1.000
 0.369565  0.000000  0.369565  1.000
 0.391304  0.000000  0.391304  1.000
 0.413043  0.000000  0.413043  1.000
 0.434783  0.000000  0.434783  1.000
 0.456522  0.000000  0.456522  1.000
 0.478261  0.000000  0.478261  1.000
 0.500000  0.000000  0.500000  1.000
 0.500000  0.022727  0.522727  1.000
 0.500000  0.045455  0.545455  1.000
 0.500000  0.068182  0.568182  1.000
 0.500000  0.090909  0.590909  1.000
 0.500000  0.113636  0.613636  1.000
 0.500000  0.136364  0.636364  1.000
 0.500000  0.159091  0.659091  1.000
 0.500000  0.181818  0.681818  1.000
 0.500000  0.204545  0.704545  1.000
 0.500000  0.227273  0.727273  1.000
 0.500000  0.250000  0.750000  1.000
 0.500000  0.264706  0.735294  1.000
 0.500000  0.279412  0.720588  1.000
 0.500000  0.294118  0.705882  1.000
 0.500000  0.308824  0.691176  1.000
 0.500000  0.323529  0.676471  1.000
 0.500000  0.338235  0.661765  1.000
 0.500000  0.352941  0.647059  1.000
 0.500000  0.367647  0.632353  1.000
 0.500000  0.382353  0.617647  1.000
 0.500000  0.397059  0.602941  1.000
 0.500000  0.411765  0.588235  1.000
 0.500000  0.426471  0.573529  1.000
 0.500000  0.441176  0.558824  1.000
 0.500000  0.455882  0.544118  1.000
 0.500000  0.470588  0.529412  1.000
 0.500000  0.485294  0.514706  1.000
 0.500000  0.500000  0.500000  1.000
 0.476190  0.476190  0.476190  1.000
 0.452381  0.452381  0.452381  1.000
 0.428571  0.428571  0.428571  1.000
 0.404762  0.404762  0.404762  1.000
 0.380952  0.380952  0.380952  1.000
 0.357143  0.357143  0.357143  1.000
 0.333333  0.333333  0.333333  1.000
 0.309524  0.309524  0.309524  1.000
 0.285714  0.285714  0.285714  1.000
 0.261905  0.261905  0.261905  1.000
 0.238095  0.238095  0.238095  1.000
 0.214286  0.214286  0.214286  1.000
 0.190476  0.190476  0.190476  1.000
 0.166667  0.166667  0.166667  1.000
 0.142857  0.142857  0.142857  1.000
 0.119048  0.119048  0.119048  1.000
 0.095238  0.095238  0.095238  1.000
 0.071429  0.071429  0.071429  1.000
 0.047619  0.047619  0.047619  1.000
 0.023810  0.023810  0.023810  1.000
 0.000000  0.000000  0.000000  1.000
 0.013889  0.013889  0.027778  1.000
 0.027778  0.027778  0.055556  1.000
 0.041667  0.041667  0.083333  1.000
 0.055556  0.055556  0.111111  1.000
 0.069444  0.069444  0.138889  1.000
 0.083333  0.083333  0.166667  1.000
 0.097222  0.097222  0.194444  1.000
 0.111111  0.111111  0.222222  1.000
 0.125000  0.125000  0.250000  1.000
 0.138889  0.138889  0.277778  1.000
 0.152778  0.152778  0.305556  1.000
 0.166667  0.166667  0.333333  1.000
 0.180556  0.180556  0.361111  1.000
 0.194444  0.194444  0.388889  1.000
 0.208333  0.208333  0.416667  1.000
 0.222222  0.222222  0.444444  1.000
 0.236111  0.236111  0.472222  1.000
 0.250000  0.250000  0.500000  1.000
 0.263889  0.263889  0.527778  1.000
 0.277778  0.277778  0.555556  1.000
 0.291667  0.291667  0.583333  1.000
 0.305556  0.305556  0.611111  1.000
 0.319444  0.319444  0.638889  1.000
 0.333333  0.333333  0.666667  1.000
 0.347222  0.347222  0.694444  1.000
 0.361111  0.361111  0.722222  1.000
 0.375000  0.375000  0.750000  1.000
