 &input
fildyn='dyn.xml',
asr='zero-dim' 
/

