&CONTROL
   calculation      = 'relax'
   tprnfor          = .true.
   outdir           = './output'
   prefix           = 'opt'
   pseudo_dir       = '../../../pseudo'
   lfcp             = .true.
   trism            = .false.
/
&SYSTEM
   ibrav            = 0
   ecutwfc          = 40
   ecutrho          = 320.0
   nosym            = .true.
   occupations      = 'smearing'
   degauss          = 0.01
   smearing         = 'gauss'
   nspin            = 1
   ntyp             = 1
   nat              = 12
   assume_isolated  = 'esm'
   esm_bc           = 'bc3'
!   tot_charge       =  0.0 
   lgcscf           = .false.
/
&ELECTRONS
   electron_maxstep = 200
   conv_thr         = 1e-06
   mixing_beta      = 0.1
   diagonalization  = 'david'
/
&IONS
   upscale          = 1
/
&CELL
/
&FCP
   fcp_mu           = -5.03
   fcp_dynamics     = 'bfgs'
   fcp_conv_thr     = 0.01
   freeze_all_atoms = .false.
/
&RISM
   nsolv            = 3
   closure          = 'kh'
   tempv            = 300.0
   ecutsolv         = 160.0
   solute_lj(1)     = 'none'
   solute_epsilon(1) = 0.005
   solute_sigma(1)  = 3.11369102
   starting1d       = 'zero'
   starting3d       = 'zero'
   rism1d_maxstep   = 15000
   rism3d_maxstep   = 15000
   rism1d_conv_thr  = 1e-08
   rism3d_conv_thr  = 1e-06
   mdiis1d_size     = 20
   mdiis3d_size     = 20
   mdiis1d_step     = 0.2
   mdiis3d_step     = 0.1
   rism3d_conv_level = 0.7
   laue_expand_right = 60
   laue_buffer_right = 4.0
/

ATOMIC_SPECIES
Cu 63.546 cu_pbe_v1.2.uspp.F.UPF

K_POINTS automatic
4 4 1  1 1 0

CELL_PARAMETERS angstrom
5.15395466280862 0.00000000000000 0.00000000000000
2.57697733140431 4.46345566794552 0.00000000000000
0.00000000000000 0.00000000000000 30.00000000000000

ATOMIC_POSITIONS (angstrom)
Cu               0.0000000000        0.0000000000       -2.0842344718    0   0   0
Cu               2.5769773314        1.4878185560        0.0198587084    0   0   0
Cu               1.2858152563        0.7416285876        2.0855726391
Cu               1.2884886657        2.2317278340       -2.0842344718    0   0   0
Cu               3.8654659971        3.7195463900        0.0198587084    0   0   0
Cu               2.5745029752        2.9733210067        2.0858472515
Cu               2.5769773314       -0.0000000000       -2.0842344718    0   0   0
Cu               5.1539546628        1.4878185560        0.0198587084    0   0   0
Cu               3.8626183713        0.7415550867        2.0861643839
Cu               3.8654659971        2.2317278340       -2.0842344718    0   0   0
Cu               6.4424433285        3.7195463900        0.0198587084    0   0   0
Cu               5.1513116621        2.9732583646        2.0865568798

SOLVENTS {mol/L}
H2O -1.0 H2O.tip5p.Nishihara.MOL
K+   1.0 K+.Hagiwara.MOL
OH-  1.0 OH-.oplsaa.MOL
