&CONTROL
   calculation      = 'relax'                ! describing the task to be performed
   outdir           = 'output'               ! input, temporary, output files
   prefix           = 'prefix'               ! prefix of calculation
   pseudo_dir       = '/path/to/your/pseudo' ! path to pseudopotential files
   etot_conv_thr    = 1.0D-4                 ! Convergence threshold on total energy (a.u) for ionic minimization
   forc_conv_thr    = 1.0D-3                 ! Convergence threshold on forces (a.u) for ionic minimization
   tprnfor          = .true.                 ! calculate forces
/
&SYSTEM
   ibrav            = 0                      ! Bravais-lattice index
   ntyp             = 2                      ! number of types of atoms in the unit cell
   nat              = 3                      ! number of atoms in the unit cell
   ecutwfc          = 40                     ! kinetic energy cutoff (Ry) for wavefunctions 
   ecutrho          = 320.0                  ! Kinetic energy cutoff (Ry) for charge density and potential
   nspin            = 1                      ! 1:non-polarized / 2:spin-polarized
   nbnd             = 12                     ! Number of electronic states (bands) to be calculated
   vdw_corr         = 'DFT-D3'               ! Type of Van der Waals correction
   tot_charge       = 0.0                    ! Total charge of the system. In a periodic calculation a compensating jellium background is inserted
   occupations      = 'smearing'             ! smearing, tetrahedra
   smearing         = 'gaussian'             ! smearing method  
   degauss          = 0.01                   ! value of the gaussian spreading (Ry)
/
&ELECTRONS
   electron_maxstep = 100                    ! maximum number of iterations in a scf step
   conv_thr         = 1e-06                  ! Convergence threshold for selfconsistency
   mixing_beta      = 0.7                    ! mixing factor for self-consistency
   diagonalization  = 'david'                ! diagonalization
/
&IONS
   ion_dynamics     = 'bfgs'                 ! Specify the type of ionic dynamics
/
&CELL
/

ATOMIC_SPECIES
O 15.999 o_pbe_v1.2.uspp.F.UPF
H 1.008 h_pbe_v1.4.uspp.F.UPF

K_POINTS automatic
1 1 1 0 0 0

CELL_PARAMETERS angstrom
10.00000000000000 0.00000000000000 0.00000000000000
0.00000000000000 10.00000000000000 0.00000000000000
0.00000000000000 0.00000000000000 10.00000000000000

ATOMIC_POSITIONS angstrom
O 5.0000000000 5.0000000000 5.2981545000 
H 5.0000000000 5.7632390000 4.7018455000 
H 5.0000000000 4.2367610000 4.7018455000 



