System = SAC
ISMEAR = 0
SIGMA  = 0.01
EDIFF  = 1.0E-5
EDIFFG = -1.0E-3
ISPIN  = 1
ALGO   = fast
NSW    = 1000
ISIF   = 2
IBRION = 2
LREAL  = F
ENCUT  = 500
LWAVE  = F
LCHARG = T
LAECHG = T
NGXF = 135
NGYF = 135
NGZF = 135
