O  H 
 1.0000000000000000
     9.9999998215082506    0.0000000000000000    0.0000000000000000
     0.0000000000000000    9.9999998215082506    0.0000000000000000
     0.0000000000000000    0.0000000000000000    9.9999998215082506
 O   H  
   1   2
Cartesian
  4.9999999107541253  4.9999999107541253  5.3051679053071288
  4.9999999107541253  5.7691758970249687  4.6983389161385256
  4.9999999107541253  4.2308239244832828  4.6983389161385256
