&CONTROL
/
&SYSTEM
   ntyp             = 2
   nat              = 12
   ibrav            = 0
/
&ELECTRONS
/
&IONS
/
&CELL
/
&FCP
/
&RISM
/

ATOMIC_SPECIES
C 12.011 None
H 1.008 None

K_POINTS gamma

CELL_PARAMETERS angstrom
10.00000000000000 0.00000000000000 0.00000000000000
0.00000000000000 10.00000000000000 0.00000000000000
0.00000000000000 0.00000000000000 10.00000000000000

ATOMIC_POSITIONS angstrom
C 0.0000000000 1.3952480000 0.0000000000 
C 1.2083200000 0.6976240000 0.0000000000 
C 1.2083200000 -0.6976240000 0.0000000000 
C 0.0000000000 -1.3952480000 0.0000000000 
C -1.2083200000 -0.6976240000 0.0000000000 
C -1.2083200000 0.6976240000 0.0000000000 
H 0.0000000000 2.4823600000 0.0000000000 
H 2.1497870000 1.2411800000 0.0000000000 
H 2.1497870000 -1.2411800000 0.0000000000 
H 0.0000000000 -2.4823600000 0.0000000000 
H -2.1497870000 -1.2411800000 0.0000000000 
H -2.1497870000 1.2411800000 0.0000000000 

