&CONTROL
   calculation      = 'relax'
   nstep            = 100
   tprnfor          = .true.
   outdir           = './output'
   prefix           = 'opt'
   pseudo_dir       = '../../pseudo'
/
&SYSTEM
   ibrav            = 0
   ecutwfc          = 40
   ecutrho          = 320.0
   nosym            = .true.
   occupations      = 'smearing'
   degauss          = 0.01
   smearing         = 'm-p'
   nspin            = 1
   ntyp             = 3
   nat              = 29
   input_dft        = 'vdw-df2-b86r'
/
&ELECTRONS
   electron_maxstep = 200
   conv_thr         = 1e-06
   mixing_beta      = 0.1
/
&IONS
/
&CELL
/

ATOMIC_SPECIES
Cu 63.546 cu_pbe_v1.2.uspp.F.UPF
O 15.999 o_pbe_v1.2.uspp.F.UPF
C 12.011 c_pbe_v1.2.uspp.F.UPF

K_POINTS automatic
2 2 1  1 1 0

CELL_PARAMETERS angstrom
7.73093199421293 0.00000000000000 0.00000000000000
3.86546599710646 6.69518350191829 0.00000000000000
0.00000000000000 0.00000000000000 24.20818636043975

ATOMIC_POSITIONS (angstrom)
Cu            0.0000000000        0.0000000000       10.0000000000    0   0   0
Cu            2.5736361505        1.4783484207       11.9921902823
Cu            1.2846528926        0.7354428086       13.9878161484
Cu            1.2884886657        2.2317278340       10.0000000000    0   0   0
Cu            3.8767789741        3.7207522412       12.0049311578
Cu            2.5694400930        2.9676353880       13.9857069790
Cu            2.5769773314        4.4634556679       10.0000000000    0   0   0
Cu            5.1519484163        5.9451506030       12.0037965806
Cu            3.8394528188        5.2214498733       14.0053305743
Cu            2.5769773314        0.0000000000       10.0000000000    0   0   0
Cu            5.1545464779        1.4968482170       12.0047480997
Cu            3.8578014419        0.7386315067       13.9922367827
Cu            3.8654659971        2.2317278340       10.0000000000    0   0   0
Cu            6.4426317888        3.7200355746       11.9898773019
Cu            5.1592597995        2.9506338081       14.0247483774
Cu            5.1539546628        4.4634556679       10.0000000000    0   0   0
Cu            7.7101406337        5.9358058545       12.0056450968
Cu            6.4461401492        5.2192133157       14.0375772379
Cu            5.1539546628        0.0000000000       10.0000000000    0   0   0
Cu            7.7295407969        1.4862944111       11.9961486454
Cu            6.4450435453        0.7402906083       13.9890502038
Cu            6.4424433285        2.2317278340       10.0000000000    0   0   0
Cu            9.0219289296        3.7128304567       11.9907157306
Cu            7.7570472696        2.9567128477       13.9902293272
Cu            7.7309319942        4.4634556679       10.0000000000    0   0   0
Cu           10.3077462973        5.9522180929       11.9939899981
Cu            9.0175308716        5.1991495523       13.9854099555
O             5.7485704680        4.0995109156       16.7285720361
C             5.7395676451        4.0837067172       15.5571616348


