&CONTROL
   calculation      = 'relax'
   nstep            = 100
   tprnfor          = .true.
   outdir           = './output'
   prefix           = 'opt'
   pseudo_dir       = '/project/lt200240-ccoxrr/mano/02_for_rism/pseudo'
/
&SYSTEM
   ibrav            = 0
   ecutwfc          = 40
   ecutrho          = 320.0
   nosym            = .true.
   occupations      = 'smearing'
   degauss          = 0.01
   smearing         = 'm-p'
   nspin            = 1
   ntyp             = 1
   nat              = 27
   input_dft        = 'vdw-df2-b86r'
/
&ELECTRONS
   electron_maxstep = 200
   conv_thr         = 1e-06
   mixing_beta      = 0.1
/
&IONS
/
&CELL
/

ATOMIC_SPECIES
Cu 63.546 cu_pbe_v1.2.uspp.F.UPF

K_POINTS automatic
2 2 1  1 1 0

CELL_PARAMETERS angstrom
7.73093199421293 0.00000000000000 0.00000000000000
3.86546599710646 6.69518350191829 0.00000000000000
0.00000000000000 0.00000000000000 24.20818636043975

ATOMIC_POSITIONS (angstrom)
Cu            0.0000000000        0.0000000000       10.0000000000    0   0   0
Cu            2.5753134417        1.4868664875       11.9892008053
Cu            1.2832634039        0.7406950905       13.9783473334
Cu            1.2884886657        2.2317278340       10.0000000000    0   0   0
Cu            3.8636391556        3.7186882016       11.9890285986
Cu            2.5718109552        2.9728640445       13.9785321186
Cu            2.5769773314        4.4634556679       10.0000000000    0   0   0
Cu            5.1520903217        5.9501684355       11.9891052509
Cu            3.8600100650        5.2042037823       13.9785968531
Cu            2.5769773314        0.0000000000       10.0000000000    0   0   0
Cu            5.1521354834        1.4867316379       11.9891466943
Cu            3.8602330120        0.7406629683       13.9786465324
Cu            3.8654659971        2.2317278340       10.0000000000    0   0   0
Cu            6.4406769046        3.7186226059       11.9891008250
Cu            5.1484383464        2.9726846291       13.9784539514
Cu            5.1539546628        4.4634556679       10.0000000000    0   0   0
Cu            7.7292844664        5.9501876251       11.9891844690
Cu            6.4371299087        5.2043531526       13.9785353836
Cu            5.1539546628        0.0000000000       10.0000000000    0   0   0
Cu            7.7291558342        1.4867482626       11.9890884777
Cu            6.4369811910        0.7404629024       13.9783102962
Cu            6.4424433285        2.2317278340       10.0000000000    0   0   0
Cu            9.0178214852        3.7187283459       11.9890369434
Cu            7.7257640576        2.9728378552       13.9782563334
Cu            7.7309319942        4.4634556679       10.0000000000    0   0   0
Cu           10.3061578688        5.9500770214       11.9890016884
Cu            9.0142314141        5.2043127973       13.9786238504


