&CONTROL
   calculation      = 'relax'
   nstep            = 100
   tprnfor          = .true.
   outdir           = './output'
   prefix           = 'opt'
   pseudo_dir       = '/project/lt200240-ccoxrr/mano/02_for_rism/pseudo'
/
&SYSTEM
   ibrav            = 0
   ecutwfc          = 40
   ecutrho          = 320.0
   nosym            = .true.
   occupations      = 'smearing'
   degauss          = 0.01
   smearing         = 'm-p'
   nspin            = 1
   ntyp             = 3
   nat              = 29
   input_dft        = 'vdw-df2-b86r'
/
&ELECTRONS
   electron_maxstep = 200
   conv_thr         = 1e-06
   mixing_beta      = 0.1
/
&IONS
/
&CELL
/

ATOMIC_SPECIES
Cu 63.546 cu_pbe_v1.2.uspp.F.UPF
O 15.999 o_pbe_v1.2.uspp.F.UPF
C 12.011 c_pbe_v1.2.uspp.F.UPF

K_POINTS automatic
2 2 1  1 1 0

CELL_PARAMETERS angstrom
7.73093199421293 0.00000000000000 0.00000000000000
3.86546599710646 6.69518350191829 0.00000000000000
0.00000000000000 0.00000000000000 24.20818636043975

ATOMIC_POSITIONS (angstrom)
Cu            0.0000000000        0.0000000000       10.0000000000    0   0   0
Cu            2.5710698524        1.4814216592       11.9841677826
Cu            1.2869459653        0.7491954169       13.9819442392
Cu            1.2884886657        2.2317278340       10.0000000000    0   0   0
Cu            3.8706529622        3.7186319198       12.0032098501
Cu            2.5590235460        2.9608281513       13.9744598400
Cu            2.5769773314        4.4634556679       10.0000000000    0   0   0
Cu            5.1510692223        5.9442090373       11.9991646764
Cu            3.8516515008        5.2197465372       14.0367509806
Cu            2.5769773314        0.0000000000       10.0000000000    0   0   0
Cu            5.1579705224        1.4962616617       12.0005664039
Cu            3.8572338663        0.7416812382       13.9808069502
Cu            3.8654659971        2.2317278340       10.0000000000    0   0   0
Cu            6.4368810399        3.7172260473       11.9978597885
Cu            5.1625615580        2.9355035697       14.0277467312
Cu            5.1539546628        4.4634556679       10.0000000000    0   0   0
Cu            7.7039086580        5.9329007046       12.0023596030
Cu            6.4592596250        5.2134758246       14.0391214515
Cu            5.1539546628        0.0000000000       10.0000000000    0   0   0
Cu            7.7300202515        1.4852026668       11.9906046301
Cu            6.4528382160        0.7412464694       13.9858626355
Cu            6.4424433285        2.2317278340       10.0000000000    0   0   0
Cu            9.0127795380        3.7136543282       11.9838439348
Cu            7.7387817736        2.9654711831       13.9810514729
Cu            7.7309319942        4.4634556679       10.0000000000    0   0   0
Cu           10.3252714732        5.9420861622       12.0038468182
Cu            9.0202101825        5.1949335772       13.9803602303
O             5.1413570510        4.4058840804       16.6232800963
C             5.1908348227        4.4506608603       15.4456092650


