&CONTROL
   calculation      = 'relax'
   nstep            = 100
   tprnfor          = .true.
   outdir           = './output'
   prefix           = 'opt'
   pseudo_dir       = '/project/lt200240-ccoxrr/mano/02_for_rism/pseudo'
/
&SYSTEM
   ibrav            = 0
   ecutwfc          = 40
   ecutrho          = 320.0
   nosym            = .true.
   occupations      = 'smearing'
   degauss          = 0.01
   smearing         = 'm-p'
   nspin            = 1
   ntyp             = 3
   nat              = 29
/
&ELECTRONS
   electron_maxstep = 200
   conv_thr         = 1e-06
   mixing_beta      = 0.1
/
&IONS
/
&CELL
/

ATOMIC_SPECIES
Cu 63.546 cu_pbe_v1.2.uspp.F.UPF
O 15.999 o_pbe_v1.2.uspp.F.UPF
C 12.011 c_pbe_v1.2.uspp.F.UPF

K_POINTS automatic
2 2 1  1 1 0

CELL_PARAMETERS angstrom
7.73093199421293 0.00000000000000 0.00000000000000
3.86546599710646 6.69518350191829 0.00000000000000
0.00000000000000 0.00000000000000 24.20818636043975

ATOMIC_POSITIONS (angstrom)
Cu            0.0000000000        0.0000000000       10.0000000000    0   0   0
Cu            2.5732602875        1.4756998153       12.0357018857
Cu            1.2881467902        0.7340005443       14.0717261048
Cu            1.2884886657        2.2317278340       10.0000000000    0   0   0
Cu            3.8710598043        3.7146862960       12.0455296393
Cu            2.5719020685        2.9627285880       14.0745529144
Cu            2.5769773314        4.4634556679       10.0000000000    0   0   0
Cu            5.1517136710        5.9436426255       12.0462700598
Cu            3.8431812270        5.2113600636       14.0947339931
Cu            2.5769773314        0.0000000000       10.0000000000    0   0   0
Cu            5.1514572588        1.4950504838       12.0520642054
Cu            3.8588456577        0.7369188953       14.0855204476
Cu            3.8654659971        2.2317278340       10.0000000000    0   0   0
Cu            6.4406559507        3.7175197817       12.0252035403
Cu            5.1584500664        2.9582679868       14.1157832883
Cu            5.1539546628        4.4634556679       10.0000000000    0   0   0
Cu            7.7123272259        5.9339684319       12.0543782542
Cu            6.4478681506        5.2127715372       14.1365645451
Cu            5.1539546628        0.0000000000       10.0000000000    0   0   0
Cu            7.7292009433        1.4875615006       12.0393930943
Cu            6.4468459326        0.7358368855       14.0736719268
Cu            6.4424433285        2.2317278340       10.0000000000    0   0   0
Cu            9.0232106840        3.7094935694       12.0357518966
Cu            7.7577209371        2.9557615707       14.0745097377
Cu            7.7309319942        4.4634556679       10.0000000000    0   0   0
Cu           10.3093669510        5.9476441232       12.0395457517
Cu            9.0209842044        5.1981620220       14.0774178652
O             5.7427190439        4.0941075573       16.8460425431
C             5.7399400188        4.0895600224       15.6742591714




