&CONTROL
   calculation      = 'relax'
   nstep            = 100
   tprnfor          = .true.
   outdir           = './output'
   prefix           = 'opt'
   pseudo_dir       = '../../pseudo'
/
&SYSTEM
   ibrav            = 0
   ecutwfc          = 40
   ecutrho          = 320.0
   nosym            = .true.
   occupations      = 'smearing'
   degauss          = 0.01
   smearing         = 'm-p'
   nspin            = 1
   ntyp             = 1
   nat              = 27
/
&ELECTRONS
   electron_maxstep = 200
   conv_thr         = 1e-06
   mixing_beta      = 0.1
/
&IONS
/
&CELL
/

ATOMIC_SPECIES
Cu 63.546 cu_pbe_v1.2.uspp.F.UPF

K_POINTS automatic
2 2 1  1 1 0

CELL_PARAMETERS angstrom
7.73093199421293 0.00000000000000 0.00000000000000
3.86546599710646 6.69518350191829 0.00000000000000
0.00000000000000 0.00000000000000 24.20818636043975

ATOMIC_POSITIONS (angstrom)
Cu            0.0000000000        0.0000000000       10.0000000000    0   0   0
Cu            2.5758383582        1.4872358834       12.0244959581
Cu            1.2849775641        0.7419089071       14.0495875639
Cu            1.2884886657        2.2317278340       10.0000000000    0   0   0
Cu            3.8641874654        3.7187221599       12.0244662885
Cu            2.5734459184        2.9734607597       14.0496553322
Cu            2.5769773314        4.4634556679       10.0000000000    0   0   0
Cu            5.1527121056        5.9505474935       12.0246124622
Cu            3.8617777995        5.2049516210       14.0495170302
Cu            2.5769773314        0.0000000000       10.0000000000    0   0   0
Cu            5.1525854976        1.4871987895       12.0244781617
Cu            3.8616918502        0.7420016596       14.0495904909
Cu            3.8654659971        2.2317278340       10.0000000000    0   0   0
Cu            6.4411055493        3.7187711572       12.0246336182
Cu            5.1500272386        2.9735067626       14.0496413887
Cu            5.1539546628        4.4634556679       10.0000000000    0   0   0
Cu            7.7296992568        5.9506284132       12.0246354101
Cu            6.4386568307        5.2051721934       14.0496738649
Cu            5.1539546628        0.0000000000       10.0000000000    0   0   0
Cu            7.7297599231        1.4871361871       12.0245426655
Cu            6.4386119471        0.7418780496       14.0493667426
Cu            6.4424433285        2.2317278340       10.0000000000    0   0   0
Cu            9.0183451790        3.7187864899       12.0245526494
Cu            7.7272698000        2.9735538484       14.0495758426
Cu            7.7309319942        4.4634556679       10.0000000000    0   0   0
Cu           10.3066676952        5.9504692144       12.0245194352
Cu            9.0157270990        5.2051176803       14.0495357668




