&CONTROL
   calculation      = 'relax'
   nstep            = 100
   tprnfor          = .true.
   outdir           = './output'
   prefix           = 'opt'
   pseudo_dir       = '/project/lt200240-ccoxrr/mano/02_for_rism/pseudo'
/
&SYSTEM
   ibrav            = 0
   ecutwfc          = 40
   ecutrho          = 320.0
   nosym            = .true.
   occupations      = 'smearing'
   degauss          = 0.01
   smearing         = 'm-p'
   nspin            = 1
   ntyp             = 3
   nat              = 29
/
&ELECTRONS
   electron_maxstep = 200
   conv_thr         = 1e-06
   mixing_beta      = 0.1
/
&IONS
/
&CELL
/

ATOMIC_SPECIES
Cu 63.546 cu_pbe_v1.2.uspp.F.UPF
O 15.999 o_pbe_v1.2.uspp.F.UPF
C 12.011 c_pbe_v1.2.uspp.F.UPF

K_POINTS automatic
2 2 1  1 1 0

CELL_PARAMETERS angstrom
7.73093199421293 0.00000000000000 0.00000000000000
3.86546599710646 6.69518350191829 0.00000000000000
0.00000000000000 0.00000000000000 24.20818636043975

ATOMIC_POSITIONS (angstrom)
Cu            0.0000000000        0.0000000000       10.0000000000    0   0   0
Cu            2.5710504443        1.4783458547       12.0278813471
Cu            1.2856050552        0.7469194084       14.0627153463
Cu            1.2884886657        2.2317278340       10.0000000000    0   0   0
Cu            3.8631778507        3.7133149691       12.0379269886
Cu            2.5596263341        2.9597425241       14.0564254746
Cu            2.5769773314        4.4634556679       10.0000000000    0   0   0
Cu            5.1473766742        5.9391008311       12.0399995202
Cu            3.8571570539        5.2074672407       14.1317789098
Cu            2.5769773314        0.0000000000       10.0000000000    0   0   0
Cu            5.1541629064        1.4923784041       12.0506401665
Cu            3.8574247665        0.7413822266       14.0785533250
Cu            3.8654659971        2.2317278340       10.0000000000    0   0   0
Cu            6.4341545810        3.7141711043       12.0363265518
Cu            5.1558931384        2.9513969659       14.1171039776
Cu            5.1539546628        4.4634556679       10.0000000000    0   0   0
Cu            7.6990149336        5.9296457679       12.0569241806
Cu            6.4565333907        5.2091174625       14.1460352443
Cu            5.1539546628        0.0000000000       10.0000000000    0   0   0
Cu            7.7275905083        1.4823499430       12.0335759334
Cu            6.4504337073        0.7420292365       14.0772456930
Cu            6.4424433285        2.2317278340       10.0000000000    0   0   0
Cu            9.0113584801        3.7139534701       12.0279669802
Cu            7.7366786897        2.9633088725       14.0611588587
Cu            7.7309319942        4.4634556679       10.0000000000    0   0   0
Cu           10.3196912774        5.9401301386       12.0543718482
Cu            9.0189815421        5.1936482733       14.0795177975
O             5.1455778401        4.4136618686       16.7526204446
C             5.1985408325        4.4653499490       15.5762572871


