&CONTROL
   calculation      = 'relax'
   nstep            = 100
   tprnfor          = .true.
   outdir           = './output'
   prefix           = 'opt'
   pseudo_dir       = '/project/lt200240-ccoxrr/mano/02_for_rism/pseudo'
/
&SYSTEM
   ibrav            = 0
   ecutwfc          = 40
   ecutrho          = 320.0
   nosym            = .true.
   occupations      = 'smearing'
   degauss          = 0.01
   smearing         = 'm-p'
   nspin            = 1
   ntyp             = 3
   nat              = 29
/
&ELECTRONS
   electron_maxstep = 200
   conv_thr         = 1e-06
   mixing_beta      = 0.1
/
&IONS
/
&CELL
/

ATOMIC_SPECIES
Cu 63.546 cu_pbe_v1.2.uspp.F.UPF
O 15.999 o_pbe_v1.2.uspp.F.UPF
C 12.011 c_pbe_v1.2.uspp.F.UPF

K_POINTS automatic
2 2 1  1 1 0

CELL_PARAMETERS angstrom
7.73093199421293 0.00000000000000 0.00000000000000
3.86546599710646 6.69518350191829 0.00000000000000
0.00000000000000 0.00000000000000 24.20818636043975

ATOMIC_POSITIONS (angstrom)
Cu            0.0000000000        0.0000000000       10.0000000000    0   0   0
Cu            2.5697148224        1.4836261509       12.0365811491
Cu            1.2862743686        0.7426326187       14.0780215776
Cu            1.2884886657        2.2317278340       10.0000000000    0   0   0
Cu            3.8767767485        3.7109676471       12.0510191871
Cu            2.5604255646        2.9678708552       14.0732199021
Cu            2.5769773314        4.4634556679       10.0000000000    0   0   0
Cu            5.1519671519        5.9528872441       12.0335398511
Cu            3.8598340144        5.2263435037       14.0585084983
Cu            2.5769773314        0.0000000000       10.0000000000    0   0   0
Cu            5.1521775586        1.5019055576       12.0510192619
Cu            3.8504628508        0.7334611500       14.0732196803
Cu            3.8654659971        2.2317278340       10.0000000000    0   0   0
Cu            6.4213896450        3.7073934761       12.0567886108
Cu            5.1618514855        2.9801978256       14.1524303244
Cu            5.1539546628        4.4634556679       10.0000000000    0   0   0
Cu            7.7325774334        5.9522541181       12.0321803763
Cu            6.4465922931        5.2243373016       14.0722250006
Cu            5.1539546628        0.0000000000       10.0000000000    0   0   0
Cu            7.7313343391        1.4852903386       12.0335409081
Cu            6.4560634366        0.7295453117       14.0585093172
Cu            6.4424433285        2.2317278340       10.0000000000    0   0   0
Cu            9.0210906660        3.7204841182       12.0321814525
Cu            7.7477045367        2.9707461411       14.0722277505
Cu            7.7309319942        4.4634556679       10.0000000000    0   0   0
Cu           10.3033779052        5.9486572058       12.0275246734
Cu            9.0184393105        5.2067995271       14.0660325608
O             5.1501302885        2.9734258422       17.1687368569
C             5.1581659315        2.9780666111       16.0149727129



